32	0

0	2	2	3
4	2	4	5
10	2	6	8
4	2	6	7
6	2	6	8
9	2	9	10
3	1	8
8	2	9	10
1	2	11	12
5	1	11
2	2	13	14
7	2	13	14
8	2	15	16
1	2	15	16
3	2	18	19
1	1	17
6	2	18	19
10	2	20	21
9	3	20	21	22
9	2	23	24
6	2	23	24
4	2	23	24
10	3	27	28	29
2	2	25	26
7	3	27	28	29
8	3	27	28	29
9	1	32
8	1	30
7	2	30	31
2	1	32
3	1	32
0	0
